c ---- [ banner ] ------------------------------------------------------------
c
c Kissat SAT Solver
c 
c Copyright (c) 2021-2024 Armin Biere University of Freiburg
c Copyright (c) 2019-2021 Armin Biere Johannes Kepler University Linz
c 
c Version 4.0.2 unknown
c gcc (GCC) 13.3.0 -W -Wall -O3 -march=native -funroll-loops -DNDEBUG
c Mon Feb 24 08:53:02 AM CET 2025 Linux main0 6.6.79 x86_64
c
c ---- [ parsing ] -----------------------------------------------------------
c
c opened and reading DIMACS file:
c
c   instances/003de2086be59a5fb7a7aaad0992cf47-x9-07025.sat.sanitized.cnf
c
c parsed 'p cnf 350 3146' header
c closing input after reading 38316 bytes (37 KB)
c finished parsing after 0.00 seconds
c
c ---- [ solving ] -----------------------------------------------------------
c
c seconds switched rate     size/glue tier1  binary     remaining
c        MB reductions conflicts size  tier2   irredundant
c         level restarts redundant glue  trail      variables
c
c *  0.00  3 0 0 0  0 0   0   0 0.0 0 0 0 0 0% 2866 280 350 100%
c (  0.00  3 0 0 0  0 0   0   0 0.0 0 0 0 0 0% 2866 280 350 100%
c .  0.00  3 0 0 0  0 0   0   0 0.0 0 0 0 0 0% 2866 280 350 100%
c f  0.02  3 0 0 0  0 0   0   0 0.0 0 0 0 0 0% 1259 280 421 120%
c e  0.02  3 0 0 0  0 0   0   0 0.0 0 0 0 0 0% 1260 280 420 120%
c )  0.02  3 0 0 0  0 0   0   0 0.0 0 0 0 0 0% 1260 280 420 120%
c {  0.02  3 0 0 0  0 0   0   0 0.0 0 0 2 6 0% 1260 280 420 120%
c -  0.03  4 15 0 1 54 2 1002 658 2.2 17 8 2 10 66% 1261 280 420 120%
c }  0.03  4 15 1 1 54 2 1002 658 2.2 17 8 2 10 66% 1261 280 420 120%
c [  0.03  4 0 1 1 54 0 1002 658 0.0 0 0 2 6 0% 1261 280 420 120%
c B  0.03  4 0 1 1 54 0 1002 658 0.0 0 0 2 6 0% 1261 280 420 120%
c ]  0.04  4 22 2 1 54 1 1710 1347 2.1 23 11 2 13 67% 1261 280 420 120%
c {  0.04  4 15 2 1 54 2 1710 1347 2.2 17 8 2 10 66% 1261 280 420 120%
c -  0.04  4 13 2 2 65 2 2003 1523 2.2 17 8 2 9 66% 1261 280 420 120%
c }  0.05  4 12 3 2 65 2 2710 2176 2.5 18 7 2 9 68% 1262 280 420 120%
c [  0.05  4 22 3 2 65 1 2710 2176 2.1 23 11 2 13 67% 1262 280 420 120%
c W  0.05  4 22 3 2 65 1 2710 2176 2.1 23 11 2 13 67% 1262 280 420 120%
c -  0.06  4 19 3 3 65 1 3418 2352 2.1 22 10 2 10 67% 1262 280 420 120%
c ]  0.07  4 19 4 3 65 1 3579 2507 2.1 22 10 2 10 67% 1262 280 420 120%
c {  0.07  4 12 4 3 65 2 3579 2507 2.5 18 7 2 9 68% 1262 280 420 120%
c
c seconds  switched  rate       size/glue tier1    binary     remaining
c        MB reductions conflicts      size  tier2    irredundant
c         level restarts   redundant    glue   trail      variables
c
c u  0.08  4 13 4 3 205 2 3977 2789 2.3 17 8 2 9 67% 1262 280 420 120%
c v  0.08  4 13 4 3 205 2 3977 2773 2.3 17 8 2 9 67% 1262 280 420 120%
c w  0.08  4 13 4 3 205 2 3977 2770 2.3 17 8 2 9 67% 1262 280 420 120%
c f  0.08  4 13 4 3 205 2 3977 2770 2.3 17 8 2 9 67% 1261 280 421 120%
c u  0.09  4 13 4 3 205 2 3977 2754 2.3 17 8 2 9 67% 1261 280 421 120%
c v  0.09  4 13 4 3 205 2 3977 2626 2.3 17 8 2 9 67% 1261 280 421 120%
c w  0.10  4 13 4 3 205 2 3977 2596 2.3 17 8 2 9 67% 1261 280 421 120%
c -  0.14  4 14 4 4 491 3 5152 3020 2.1 17 8 1 7 67% 1261 280 421 120%
c }  0.16  5 14 5 4 649 4 5933 3774 2.1 17 8 1 7 67% 1261 280 421 120%
c [  0.16  5 19 5 4 649 1 5933 3774 2.1 22 10 2 10 67% 1261 280 421 120%
c I  0.16  5 19 5 4 649 1 5933 3774 2.1 22 10 2 10 67% 1261 280 421 120%
c -  0.18  5 16 5 5 650 1 7152 3625 2.0 20 10 1 9 68% 1261 280 421 120%
c ]  0.22  5 14 6 5 651 1 8708 4987 2.1 19 9 1 9 67% 1261 280 421 120%
c {  0.22  5 14 6 5 651 4 8708 4987 2.1 17 8 1 7 67% 1261 280 421 120%
c -  0.24  5 15 6 6 774 4 9390 4479 2.0 17 8 1 6 67% 1261 280 421 120%
c o  0.26  5 15 6 6 854 4 10004 5068 2.1 17 8 1 6 67% 1261 280 421 120%
c -  0.33  5 15 6 7 1158 4 11840 5355 2.0 17 8 1 6 66% 1261 280 421 120%
c u  0.35  5 15 6 7 1164 3 12242 5529 2.0 17 8 1 6 67% 1261 280 421 120%
c v  0.35  5 15 6 7 1164 3 12242 5504 2.0 17 8 1 6 67% 1261 280 421 120%
c w  0.36  5 15 6 7 1164 3 12242 5446 2.0 17 8 1 6 67% 1261 280 421 120%
c
c seconds  switched   rate        size/glue tier1    binary     remaining
c        MB reductions  conflicts       size  tier2    irredundant
c         level  restarts    redundant    glue   trail      variables
c
c }  0.37  5 15 7 7 1190 3 12777 5949 2.0 17 8 1 6 66% 1261 280 421 120%
c [  0.37  5 14 7 7 1190 1 12777 5949 2.1 19 9 1 9 67% 1261 280 421 120%
c B  0.37  5 14 7 7 1190 1 12777 5949 2.1 19 9 1 9 67% 1261 280 421 120%
c -  0.42  5 13 7 8 1191 1 14485 5020 2.1 18 9 1 7 67% 1261 280 421 120%
c ]  0.44  5 13 7 8 1192 1 15549 5950 2.1 18 8 1 7 68% 1261 280 421 120%
c 1  0.44  5 15 7 8 1192 3 15549 5950 2.0 17 8 1 6 66% 1261 280 421 120%
c
c ---- [ result ] ------------------------------------------------------------
c
s SATISFIABLE
v -1 -2 -3 -4 -5 6 7 -8 -9 -10 -11 -12 -13 14 -15 -16 -17 -18 -19 -20 -21 22
v -23 -24 -25 -26 27 28 -29 -30 -31 -32 33 -34 -35 -36 -37 -38 39 -40 -41 -42
v -43 44 -45 -46 -47 -48 -49 50 -51 -52 -53 -54 55 -56 57 -58 -59 -60 -61 -62
v -63 -64 -65 -66 -67 -68 69 -70 -71 -72 -73 74 75 -76 -77 -78 -79 -80 -81 -82
v 83 -84 -85 86 -87 -88 -89 -90 -91 92 -93 94 -95 -96 -97 -98 99 -100 -101
v -102 -103 -104 -105 106 -107 -108 -109 110 -111 112 -113 -114 -115 116 -117
v -118 -119 120 -121 -122 -123 -124 125 -126 -127 -128 -129 130 -131 -132 -133
v -134 135 -136 -137 -138 139 -140 -141 -142 -143 144 -145 -146 147 -148 -149
v -150 -151 152 153 -154 -155 -156 -157 -158 -159 160 -161 -162 -163 -164 -165
v -166 167 -168 -169 -170 -171 -172 -173 174 -175 -176 -177 -178 -179 -180
v -181 -182 -183 -184 -185 186 -187 -188 -189 190 -191 -192 -193 -194 195 -196
v -197 -198 -199 -200 -201 202 -203 -204 -205 -206 -207 208 -209 -210 -211
v -212 -213 -214 -215 -216 -217 -218 -219 -220 -221 222 -223 -224 -225 226
v -227 -228 -229 -230 -231 -232 -233 234 -235 -236 -237 238 -239 240 -241 -242
v -243 -244 245 -246 247 -248 -249 -250 251 -252 -253 -254 255 -256 257 -258
v -259 -260 261 -262 263 264 -265 -266 -267 -268 269 -270 -271 -272 -273 -274
v -275 -276 -277 -278 -279 -280 -281 -282 -283 -284 -285 -286 -287 -288 -289
v 290 291 -292 -293 -294 -295 -296 -297 -298 299 -300 -301 -302 -303 304 -305
v 306 -307 308 -309 -310 -311 312 -313 -314 -315 -316 -317 318 319 -320 -321
v 322 -323 -324 -325 -326 -327 -328 329 -330 331 -332 -333 334 -335 -336 -337
v -338 -339 -340 -341 -342 343 -344 -345 -346 347 -348 -349 -350 0
c
c ---- [ profiling ] ---------------------------------------------------------
c
c           0.36   82.60 %  search
c           0.22   49.46 %  focused
c           0.15   33.14 %  stable
c           0.07   16.88 %  probe
c           0.06   13.07 %  simplify
c           0.04    8.20 %  vivify
c           0.03    7.80 %  sweep
c           0.02    4.15 %  preprocess
c           0.00    0.68 %  reduce
c           0.00    0.32 %  substitute
c           0.00    0.26 %  walking
c           0.00    0.18 %  congruence
c           0.00    0.17 %  factor
c           0.00    0.11 %  transitive
c           0.00    0.09 %  parse
c           0.00    0.08 %  fastel
c           0.00    0.07 %  backbone
c           0.00    0.05 %  lucky
c =============================================
c           0.44  100.00 %  total
c
c ---- [ statistics ] --------------------------------------------------------
c
c conflicts:                            15549            35331.33 per second
c decisions:                            36410                2.34 per conflict
c eliminated:                               1                0 %  variables
c factored:                                72               21 %  variables
c fast_eliminated:                          1              100 %  eliminated
c propagations:                       1964422          4463672    per second
c reductions:                               8             1944    interval
c reordered:                                1            15549    interval
c rephased:                                 4             3887    interval
c restarts:                              1192               13    interval
c switched:                                 7             2221    interval
c vivified:                              1188               44 %  checks
c walks:                                    1            15549    interval
c
c ---- [ glue usage ] --------------------------------------------------------
c
c focused glue 1   used 34057 clauses 60.72% accumulated 60.72% tier1
c focused glue 2   used  8574 clauses 15.29% accumulated 76.00%
c focused glue 3-4 used  5851 clauses 10.43% accumulated 86.43%
c focused glue 5   used  1523 clauses  2.72% accumulated 89.15%
c focused glue 6   used  1214 clauses  2.16% accumulated 91.31% tier2
c
c stable glue 1   used 32946 clauses 56.18% accumulated 56.18% tier1
c stable glue 2   used  8218 clauses 14.01% accumulated 70.19%
c stable glue 3-5 used  9343 clauses 15.93% accumulated 86.13%
c stable glue 6   used  1648 clauses  2.81% accumulated 88.94%
c stable glue 7   used  1417 clauses  2.42% accumulated 91.35% tier2
c
c ---- [ resources ] ---------------------------------------------------------
c
c maximum-resident-set-size:          5435392 bytes          5 MB
c process-time:                                              0.44 seconds
c
c ---- [ shutting down ] -----------------------------------------------------
c
c exit 10
